Electron-phonon coefficients
&inputph
  tr2_ph=1.0d-14,
  prefix='YSc2H24',
  fildvscf='YSc2H24dv',
  amass(1)=88.90585,
  amass(2)=44.95591,
  amass(3)=1.00794,
  outdir='./tmp',
  fildyn='YSc2H24.dyn',
  electron_phonon='interpolated',
  el_ph_sigma=0.005,
  el_ph_nsigma=10,
  trans=.true.,
  ldisp=.true.
   nq1=4, nq2=4, nq3=4
  search_sym=.false.
  /

