&CONTROL
   calculation='scf', pseudo_dir='./', outdir='./tmp', verbosity='high',
  tprnfor=.true., tstress=.true., forc_conv_thr=1.0d-5, nstep=100, prefix='YSc2H24'
/
&SYSTEM
  ibrav= 0, nat= 27, ntyp= 3, 
  occupations = 'smearing', smearing = 'mp', degauss = 2.0d-2,
  ecutwfc = 80, ecutrho= 640,
  la2F=.true.
/
&ELECTRONS
  conv_thr = 1.0d-10
  mixing_beta = 0.7d0
/
&IONS
ion_dynamics='bfgs'
/
&CELL
  press_conv_thr=0.1
  press=4000
/
ATOMIC_SPECIES
  Y 88.90585 Y.pbe-spn-rrkjus_psl.1.0.0.UPF
  Sc 44.95591 Sc.pbe-spn-rrkjus_psl.1.0.0.UPF
  H 1.00794 H.pbe-rrkjus_psl.1.0.0.UPF

CELL_PARAMETERS (angstrom)
4.471212347  -0.000000000   0.000000000
-2.235606173   3.872183478  -0.000000000
0.000000000   0.000000000   3.149603175

ATOMIC_POSITIONS (crystal)
H             0.7700708695        0.7700712701       -0.0000000000
Sc            0.3333333430        0.6666666870       -0.0000000000
H             0.2299287299       -0.0000004006        0.0000000000
H             0.7700712701        0.0000004006       -0.0000000000
H             0.0000004006        0.2299291305        0.0000000000
H             0.2299291305        0.2299287299       -0.0000000000
H            -0.0000004006        0.7700708695        0.0000000000
Sc            0.6666666570        0.3333333130        0.0000000000
H            -0.0000002789        0.6190859996        0.2909384716
H             0.6190859996        0.6190862785        0.2909384716
H             0.0000002789        0.3809140004        0.2909384716
H             0.3809140004        0.3809137215        0.2909384716
H             0.3809137215       -0.0000002789        0.2909384716
H             0.6190862785        0.0000002789        0.2909384716
H             0.4775307626        0.2387645035        0.5000000000
H             0.2387662589        0.4775307626        0.5000000000
H             0.7612337411        0.5224692374        0.5000000000
Y            -0.0000000000       -0.0000000000        0.5000000000
H             0.2387645035        0.7612337411        0.5000000000
H             0.5224692374        0.7612354965        0.5000000000
H             0.7612354965        0.2387662589        0.5000000000
H             0.0000002789        0.3809140004        0.7090615284
H             0.3809140004        0.3809137215        0.7090615284
H             0.3809137215       -0.0000002789        0.7090615284
H             0.6190859996        0.6190862785        0.7090615284
H            -0.0000002789        0.6190859996        0.7090615284
H             0.6190862785        0.0000002789        0.7090615284



K_POINTS {automatic}
  4 4 4 0 0 0
