&CONTROL
   calculation='vc-relax', pseudo_dir='./', outdir='./tmp', verbosity='high',
  tprnfor=.true., tstress=.true., forc_conv_thr=1.0d-5, nstep=100, prefix='YSc2H24'
/
&SYSTEM
  ibrav= 0, nat= 27, ntyp= 3, 
  occupations = 'smearing', smearing = 'mp', degauss = 2.0d-2,
  ecutwfc = 80, ecutrho= 640,
  la2F=.true.
/
&ELECTRONS
  conv_thr = 1.0d-10
  mixing_beta = 0.7d0
/
&IONS
ion_dynamics='bfgs'
/
&CELL
  press_conv_thr=0.1
  press=4000
/
ATOMIC_SPECIES
  Y 88.90585 Y.pbe-spn-rrkjus_psl.1.0.0.UPF
  Sc 44.95591 Sc.pbe-spn-rrkjus_psl.1.0.0.UPF
  H 1.00794 H.pbe-rrkjus_psl.1.0.0.UPF

CELL_PARAMETERS (angstrom)
   4.474137025   0.000000000  -0.000000000
  -2.237068512   3.874716323   0.000000000
   0.000000000  -0.000000000   3.145100913

ATOMIC_POSITIONS (crystal)
H             0.7694803509        0.7694807515        0.0000000000
Sc            0.3333333430        0.6666666870       -0.0000000000
H             0.2305192485       -0.0000004006        0.0000000000
H             0.7694807515        0.0000004006       -0.0000000000
H             0.0000004006        0.2305196491        0.0000000000
H             0.2305196491        0.2305192485        0.0000000000
H            -0.0000004006        0.7694803509        0.0000000000
Sc            0.6666666570        0.3333333130        0.0000000000
H            -0.0000002789        0.6195313576        0.2912399841
H             0.6195313576        0.6195316365        0.2912399841
H             0.0000002789        0.3804686424        0.2912399841
H             0.3804686424        0.3804683635        0.2912399841
H             0.3804683635       -0.0000002789        0.2912399841
H             0.6195316365        0.0000002789        0.2912399841
H             0.4767429283        0.2383705864        0.5000000000
H             0.2383723418        0.4767429283        0.5000000000
H             0.7616276582        0.5232570717        0.5000000000
Y            -0.0000000000       -0.0000000000        0.5000000000
H             0.2383705864        0.7616276582        0.5000000000
H             0.5232570717        0.7616294136        0.5000000000
H             0.7616294136        0.2383723418        0.5000000000
H             0.0000002789        0.3804686424        0.7087600159
H             0.3804686424        0.3804683635        0.7087600159
H             0.3804683635       -0.0000002789        0.7087600159
H             0.6195313576        0.6195316365        0.7087600159
H            -0.0000002789        0.6195313576        0.7087600159
H             0.6195316365        0.0000002789        0.7087600159




K_POINTS {automatic}
  20 20 20 0 0 0
